p cnf 150 1112
1 2 3 4 5 0
6 7 8 9 10 0
11 12 13 14 15 0
16 17 18 19 20 0
21 22 23 24 25 0
26 27 28 29 30 0
31 32 33 34 35 0
36 37 38 39 40 0
41 42 43 44 45 0
46 47 48 49 50 0
51 52 53 54 55 0
56 57 58 59 60 0
61 62 63 64 65 0
66 67 68 69 70 0
71 72 73 74 75 0
76 77 78 79 80 0
81 82 83 84 85 0
86 87 88 89 90 0
91 92 93 94 95 0
96 97 98 99 100 0
101 102 103 104 105 0
106 107 108 109 110 0
111 112 113 114 115 0
116 117 118 119 120 0
121 122 123 124 125 0
126 127 128 129 130 0
131 132 133 134 135 0
136 137 138 139 140 0
141 142 143 144 145 0
146 147 148 149 150 0
-1 -2 0
-1 -3 0
-1 -4 0
-1 -5 0
-2 -3 0
-2 -4 0
-2 -5 0
-3 -4 0
-3 -5 0
-4 -5 0
-6 -7 0
-6 -8 0
-6 -9 0
-6 -10 0
-7 -8 0
-7 -9 0
-7 -10 0
-8 -9 0
-8 -10 0
-9 -10 0
-11 -12 0
-11 -13 0
-11 -14 0
-11 -15 0
-12 -13 0
-12 -14 0
-12 -15 0
-13 -14 0
-13 -15 0
-14 -15 0
-16 -17 0
-16 -18 0
-16 -19 0
-16 -20 0
-17 -18 0
-17 -19 0
-17 -20 0
-18 -19 0
-18 -20 0
-19 -20 0
-21 -22 0
-21 -23 0
-21 -24 0
-21 -25 0
-22 -23 0
-22 -24 0
-22 -25 0
-23 -24 0
-23 -25 0
-24 -25 0
-26 -27 0
-26 -28 0
-26 -29 0
-26 -30 0
-27 -28 0
-27 -29 0
-27 -30 0
-28 -29 0
-28 -30 0
-29 -30 0
-31 -32 0
-31 -33 0
-31 -34 0
-31 -35 0
-32 -33 0
-32 -34 0
-32 -35 0
-33 -34 0
-33 -35 0
-34 -35 0
-36 -37 0
-36 -38 0
-36 -39 0
-36 -40 0
-37 -38 0
-37 -39 0
-37 -40 0
-38 -39 0
-38 -40 0
-39 -40 0
-41 -42 0
-41 -43 0
-41 -44 0
-41 -45 0
-42 -43 0
-42 -44 0
-42 -45 0
-43 -44 0
-43 -45 0
-44 -45 0
-46 -47 0
-46 -48 0
-46 -49 0
-46 -50 0
-47 -48 0
-47 -49 0
-47 -50 0
-48 -49 0
-48 -50 0
-49 -50 0
-51 -52 0
-51 -53 0
-51 -54 0
-51 -55 0
-52 -53 0
-52 -54 0
-52 -55 0
-53 -54 0
-53 -55 0
-54 -55 0
-56 -57 0
-56 -58 0
-56 -59 0
-56 -60 0
-57 -58 0
-57 -59 0
-57 -60 0
-58 -59 0
-58 -60 0
-59 -60 0
-61 -62 0
-61 -63 0
-61 -64 0
-61 -65 0
-62 -63 0
-62 -64 0
-62 -65 0
-63 -64 0
-63 -65 0
-64 -65 0
-66 -67 0
-66 -68 0
-66 -69 0
-66 -70 0
-67 -68 0
-67 -69 0
-67 -70 0
-68 -69 0
-68 -70 0
-69 -70 0
-71 -72 0
-71 -73 0
-71 -74 0
-71 -75 0
-72 -73 0
-72 -74 0
-72 -75 0
-73 -74 0
-73 -75 0
-74 -75 0
-76 -77 0
-76 -78 0
-76 -79 0
-76 -80 0
-77 -78 0
-77 -79 0
-77 -80 0
-78 -79 0
-78 -80 0
-79 -80 0
-81 -82 0
-81 -83 0
-81 -84 0
-81 -85 0
-82 -83 0
-82 -84 0
-82 -85 0
-83 -84 0
-83 -85 0
-84 -85 0
-86 -87 0
-86 -88 0
-86 -89 0
-86 -90 0
-87 -88 0
-87 -89 0
-87 -90 0
-88 -89 0
-88 -90 0
-89 -90 0
-91 -92 0
-91 -93 0
-91 -94 0
-91 -95 0
-92 -93 0
-92 -94 0
-92 -95 0
-93 -94 0
-93 -95 0
-94 -95 0
-96 -97 0
-96 -98 0
-96 -99 0
-96 -100 0
-97 -98 0
-97 -99 0
-97 -100 0
-98 -99 0
-98 -100 0
-99 -100 0
-101 -102 0
-101 -103 0
-101 -104 0
-101 -105 0
-102 -103 0
-102 -104 0
-102 -105 0
-103 -104 0
-103 -105 0
-104 -105 0
-106 -107 0
-106 -108 0
-106 -109 0
-106 -110 0
-107 -108 0
-107 -109 0
-107 -110 0
-108 -109 0
-108 -110 0
-109 -110 0
-111 -112 0
-111 -113 0
-111 -114 0
-111 -115 0
-112 -113 0
-112 -114 0
-112 -115 0
-113 -114 0
-113 -115 0
-114 -115 0
-116 -117 0
-116 -118 0
-116 -119 0
-116 -120 0
-117 -118 0
-117 -119 0
-117 -120 0
-118 -119 0
-118 -120 0
-119 -120 0
-121 -122 0
-121 -123 0
-121 -124 0
-121 -125 0
-122 -123 0
-122 -124 0
-122 -125 0
-123 -124 0
-123 -125 0
-124 -125 0
-126 -127 0
-126 -128 0
-126 -129 0
-126 -130 0
-127 -128 0
-127 -129 0
-127 -130 0
-128 -129 0
-128 -130 0
-129 -130 0
-131 -132 0
-131 -133 0
-131 -134 0
-131 -135 0
-132 -133 0
-132 -134 0
-132 -135 0
-133 -134 0
-133 -135 0
-134 -135 0
-136 -137 0
-136 -138 0
-136 -139 0
-136 -140 0
-137 -138 0
-137 -139 0
-137 -140 0
-138 -139 0
-138 -140 0
-139 -140 0
-141 -142 0
-141 -143 0
-141 -144 0
-141 -145 0
-142 -143 0
-142 -144 0
-142 -145 0
-143 -144 0
-143 -145 0
-144 -145 0
-146 -147 0
-146 -148 0
-146 -149 0
-146 -150 0
-147 -148 0
-147 -149 0
-147 -150 0
-148 -149 0
-148 -150 0
-149 -150 0
-4 -8 0
-2 -10 0
-4 -11 0
-4 -13 0
-3 -16 0
-3 -19 0
-5 -24 0
-3 -24 0
-3 -28 0
-4 -29 0
-2 -32 0
-2 -34 0
-4 -38 0
-4 -39 0
-1 -42 0
-3 -45 0
-3 -48 0
-3 -50 0
-1 -51 0
-4 -54 0
-4 -57 0
-1 -57 0
-2 -63 0
-5 -61 0
-4 -68 0
-1 -68 0
-2 -71 0
-4 -74 0
-4 -77 0
-1 -77 0
-5 -84 0
-1 -81 0
-4 -92 0
-2 -94 0
-3 -101 0
-4 -102 0
-2 -109 0
-2 -106 0
-1 -115 0
-5 -111 0
-3 -121 0
-4 -122 0
-3 -126 0
-2 -127 0
-1 -134 0
-4 -135 0
-5 -140 0
-4 -136 0
-2 -145 0
-1 -141 0
-5 -149 0
-1 -146 0
-6 -14 0
-9 -14 0
-7 -21 0
-9 -24 0
-8 -32 0
-10 -33 0
-6 -37 0
-9 -36 0
-7 -49 0
-9 -49 0
-9 -59 0
-7 -60 0
-10 -68 0
-9 -68 0
-10 -75 0
-6 -71 0
-7 -82 0
-9 -82 0
-10 -86 0
-10 -88 0
-7 -91 0
-8 -92 0
-8 -100 0
-7 -97 0
-7 -103 0
-9 -101 0
-10 -110 0
-10 -107 0
-10 -115 0
-6 -112 0
-7 -127 0
-8 -126 0
-6 -131 0
-6 -132 0
-9 -137 0
-6 -139 0
-6 -145 0
-6 -142 0
-12 -16 0
-13 -16 0
-14 -25 0
-13 -24 0
-14 -30 0
-12 -27 0
-11 -33 0
-13 -33 0
-14 -39 0
-11 -39 0
-15 -50 0
-14 -46 0
-15 -55 0
-14 -52 0
-13 -57 0
-13 -59 0
-11 -63 0
-13 -65 0
-14 -68 0
-12 -69 0
-14 -75 0
-12 -73 0
-15 -79 0
-12 -80 0
-12 -85 0
-12 -82 0
-15 -89 0
-14 -89 0
-14 -93 0
-12 -92 0
-11 -98 0
-13 -98 0
-11 -105 0
-15 -101 0
-14 -106 0
-13 -110 0
-11 -112 0
-12 -111 0
-13 -119 0
-12 -120 0
-14 -130 0
-15 -130 0
-14 -132 0
-15 -133 0
-13 -140 0
-14 -138 0
-11 -142 0
-11 -144 0
-12 -146 0
-15 -147 0
-18 -23 0
-19 -24 0
-19 -27 0
-20 -29 0
-19 -35 0
-17 -34 0
-20 -38 0
-18 -40 0
-19 -46 0
-18 -47 0
-16 -53 0
-20 -52 0
-16 -57 0
-16 -56 0
-16 -64 0
-18 -65 0
-16 -67 0
-19 -70 0
-17 -71 0
-18 -75 0
-19 -78 0
-18 -79 0
-18 -84 0
-16 -83 0
-20 -89 0
-18 -89 0
-18 -94 0
-16 -93 0
-16 -96 0
-20 -98 0
-17 -103 0
-20 -104 0
-16 -110 0
-17 -109 0
-20 -114 0
-17 -115 0
-16 -120 0
-17 -117 0
-20 -124 0
-18 -122 0
-17 -129 0
-19 -130 0
-17 -133 0
-19 -135 0
-17 -136 0
-19 -139 0
-16 -144 0
-20 -142 0
-16 -148 0
-20 -146 0
-23 -28 0
-22 -29 0
-21 -34 0
-22 -35 0
-23 -37 0
-25 -40 0
-23 -43 0
-24 -43 0
-24 -46 0
-25 -49 0
-22 -58 0
-21 -57 0
-23 -63 0
-24 -62 0
-24 -66 0
-23 -66 0
-25 -72 0
-25 -71 0
-22 -77 0
-21 -78 0
-22 -84 0
-24 -82 0
-24 -87 0
-23 -89 0
-24 -92 0
-22 -94 0
-24 -97 0
-21 -100 0
-21 -101 0
-22 -103 0
-22 -106 0
-23 -106 0
-24 -111 0
-23 -113 0
-24 -120 0
-22 -117 0
-22 -129 0
-22 -128 0
-21 -137 0
-23 -139 0
-22 -145 0
-24 -143 0
-21 -147 0
-23 -147 0
-30 -33 0
-27 -35 0
-27 -39 0
-30 -40 0
-29 -44 0
-26 -45 0
-30 -47 0
-30 -46 0
-30 -51 0
-29 -54 0
-26 -57 0
-29 -56 0
-30 -64 0
-28 -61 0
-26 -69 0
-30 -70 0
-29 -78 0
-26 -78 0
-30 -82 0
-28 -85 0
-26 -88 0
-27 -90 0
-29 -93 0
-29 -92 0
-26 -99 0
-29 -96 0
-29 -105 0
-26 -103 0
-29 -115 0
-30 -112 0
-28 -117 0
-27 -119 0
-28 -123 0
-29 -124 0
-28 -128 0
-29 -129 0
-30 -136 0
-28 -140 0
-28 -144 0
-27 -145 0
-35 -36 0
-35 -37 0
-32 -41 0
-33 -41 0
-34 -50 0
-33 -49 0
-32 -54 0
-35 -54 0
-31 -57 0
-31 -59 0
-32 -62 0
-34 -64 0
-33 -67 0
-33 -66 0
-33 -75 0
-31 -71 0
-33 -77 0
-32 -80 0
-31 -84 0
-32 -83 0
-33 -87 0
-32 -87 0
-32 -93 0
-33 -93 0
-32 -100 0
-32 -98 0
-33 -101 0
-31 -104 0
-34 -108 0
-33 -107 0
-35 -114 0
-34 -112 0
-35 -116 0
-33 -116 0
-32 -125 0
-31 -121 0
-33 -130 0
-35 -126 0
-35 -137 0
-31 -139 0
-34 -142 0
-34 -145 0
-33 -150 0
-32 -149 0
-37 -41 0
-40 -43 0
-37 -47 0
-36 -48 0
-38 -53 0
-38 -51 0
-39 -56 0
-37 -60 0
-40 -64 0
-36 -65 0
-36 -70 0
-38 -69 0
-38 -72 0
-39 -74 0
-36 -82 0
-40 -82 0
-38 -88 0
-36 -88 0
-40 -98 0
-38 -98 0
-39 -107 0
-38 -110 0
-38 -115 0
-40 -111 0
-39 -120 0
-37 -119 0
-39 -125 0
-38 -123 0
-37 -127 0
-40 -127 0
-40 -131 0
-36 -135 0
-36 -136 0
-38 -138 0
-36 -141 0
-37 -143 0
-42 -50 0
-44 -48 0
-41 -52 0
-45 -55 0
-42 -56 0
-45 -58 0
-41 -63 0
-45 -63 0
-42 -70 0
-41 -67 0
-45 -72 0
-43 -73 0
-44 -77 0
-44 -76 0
-41 -81 0
-45 -81 0
-44 -89 0
-42 -88 0
-42 -94 0
-41 -92 0
-43 -99 0
-44 -98 0
-41 -105 0
-41 -103 0
-45 -106 0
-43 -106 0
-43 -115 0
-45 -113 0
-45 -116 0
-42 -119 0
-41 -122 0
-44 -124 0
-44 -129 0
-41 -126 0
-41 -133 0
-41 -134 0
-42 -138 0
-41 -140 0
-41 -145 0
-45 -145 0
-43 -149 0
-42 -147 0
-48 -53 0
-47 -53 0
-50 -58 0
-46 -57 0
-49 -63 0
-46 -64 0
-48 -70 0
-49 -67 0
-49 -71 0
-46 -73 0
-49 -76 0
-49 -78 0
-48 -84 0
-47 -81 0
-47 -95 0
-48 -94 0
-48 -96 0
-49 -96 0
-47 -101 0
-46 -104 0
-49 -106 0
-49 -107 0
-49 -114 0
-48 -112 0
-47 -116 0
-47 -118 0
-46 -123 0
-46 -124 0
-47 -126 0
-50 -126 0
-50 -132 0
-49 -134 0
-48 -140 0
-46 -138 0
-50 -142 0
-47 -142 0
-50 -150 0
-49 -149 0
-55 -60 0
-51 -60 0
-54 -62 0
-52 -63 0
-51 -72 0
-53 -73 0
-55 -78 0
-52 -80 0
-53 -89 0
-55 -87 0
-53 -91 0
-55 -94 0
-52 -99 0
-53 -99 0
-55 -103 0
-52 -101 0
-55 -106 0
-53 -110 0
-54 -113 0
-54 -112 0
-51 -119 0
-52 -120 0
-52 -124 0
-55 -125 0
-51 -128 0
-51 -126 0
-53 -134 0
-54 -134 0
-54 -139 0
-53 -138 0
-54 -142 0
-51 -145 0
-54 -146 0
-54 -148 0
-57 -68 0
-56 -68 0
-56 -73 0
-57 -73 0
-58 -77 0
-57 -79 0
-59 -83 0
-60 -84 0
-60 -86 0
-57 -89 0
-59 -94 0
-56 -93 0
-59 -105 0
-57 -103 0
-59 -110 0
-60 -108 0
-57 -115 0
-57 -113 0
-57 -119 0
-57 -118 0
-56 -128 0
-59 -128 0
-59 -131 0
-56 -135 0
-59 -140 0
-59 -139 0
-57 -144 0
-59 -144 0
-59 -148 0
-56 -150 0
-65 -68 0
-65 -67 0
-65 -75 0
-64 -75 0
-65 -77 0
-63 -79 0
-64 -88 0
-65 -90 0
-64 -95 0
-62 -93 0
-64 -98 0
-63 -96 0
-65 -102 0
-62 -102 0
-63 -109 0
-61 -109 0
-64 -111 0
-61 -112 0
-61 -116 0
-62 -116 0
-62 -123 0
-65 -123 0
-62 -126 0
-65 -127 0
-65 -131 0
-61 -131 0
-63 -138 0
-63 -137 0
-62 -142 0
-65 -145 0
-64 -147 0
-62 -150 0
-70 -71 0
-68 -73 0
-70 -76 0
-67 -76 0
-66 -83 0
-66 -84 0
-67 -89 0
-68 -89 0
-67 -92 0
-70 -94 0
-68 -98 0
-67 -97 0
-69 -102 0
-66 -104 0
-66 -110 0
-68 -110 0
-70 -111 0
-70 -112 0
-66 -120 0
-70 -117 0
-67 -122 0
-70 -124 0
-66 -134 0
-68 -135 0
-70 -139 0
-66 -137 0
-67 -144 0
-69 -142 0
-70 -148 0
-70 -149 0
-72 -80 0
-72 -76 0
-73 -88 0
-71 -88 0
-75 -92 0
-73 -94 0
-71 -98 0
-75 -100 0
-72 -101 0
-71 -101 0
-74 -109 0
-72 -108 0
-71 -111 0
-74 -114 0
-74 -119 0
-74 -116 0
-75 -125 0
-72 -125 0
-72 -129 0
-75 -126 0
-71 -141 0
-74 -145 0
-74 -146 0
-71 -146 0
-77 -88 0
-80 -89 0
-77 -92 0
-79 -93 0
-78 -97 0
-76 -96 0
-76 -101 0
-77 -101 0
-77 -107 0
-76 -108 0
-80 -114 0
-79 -113 0
-76 -120 0
-78 -119 0
-77 -125 0
-77 -122 0
-76 -127 0
-79 -127 0
-76 -132 0
-78 -131 0
-79 -140 0
-80 -138 0
-78 -145 0
-79 -143 0
-77 -149 0
-76 -148 0
-84 -87 0
-81 -87 0
-81 -92 0
-82 -95 0
-85 -97 0
-81 -100 0
-84 -102 0
-85 -103 0
-82 -106 0
-81 -110 0
-85 -111 0
-82 -114 0
-82 -120 0
-83 -117 0
-82 -122 0
-85 -122 0
-84 -126 0
-85 -127 0
-84 -132 0
-85 -133 0
-82 -137 0
-85 -139 0
-81 -141 0
-81 -145 0
-85 -146 0
-82 -148 0
-90 -92 0
-90 -91 0
-89 -97 0
-86 -97 0
-88 -105 0
-89 -105 0
-88 -106 0
-90 -106 0
-89 -112 0
-86 -112 0
-88 -116 0
-86 -118 0
-90 -123 0
-87 -125 0
-90 -127 0
-89 -130 0
-88 -131 0
-86 -135 0
-88 -136 0
-90 -137 0
-90 -148 0
-90 -149 0
-93 -98 0
-91 -96 0
-94 -109 0
-95 -106 0
-92 -111 0
-95 -113 0
-94 -117 0
-94 -119 0
-95 -124 0
-93 -125 0
-93 -128 0
-94 -126 0
-93 -135 0
-91 -132 0
-93 -144 0
-92 -142 0
-91 -148 0
-95 -150 0
-96 -103 0
-96 -104 0
-96 -108 0
-96 -110 0
-98 -114 0
-100 -113 0
-97 -119 0
-99 -118 0
-96 -121 0
-100 -124 0
-96 -129 0
-100 -126 0
-97 -133 0
-98 -132 0
-97 -136 0
-96 -138 0
-99 -144 0
-96 -141 0
-96 -147 0
-97 -150 0
-103 -107 0
-102 -107 0
-101 -111 0
-101 -115 0
-103 -120 0
-101 -116 0
-101 -122 0
-102 -123 0
-104 -130 0
-104 -127 0
-102 -138 0
-102 -136 0
-103 -145 0
-101 -145 0
-105 -149 0
-102 -149 0
-108 -111 0
-108 -114 0
-110 -120 0
-108 -118 0
-110 -123 0
-109 -121 0
-110 -130 0
-109 -130 0
-108 -131 0
-108 -132 0
-108 -139 0
-110 -138 0
-109 -141 0
-108 -142 0
-106 -150 0
-109 -146 0
-112 -124 0
-111 -125 0
-115 -128 0
-113 -127 0
-115 -135 0
-112 -134 0
-111 -138 0
-111 -140 0
-113 -141 0
-112 -144 0
-113 -146 0
-112 -150 0
-118 -125 0
-117 -123 0
-117 -127 0
-116 -126 0
-120 -134 0
-117 -135 0
-116 -138 0
-120 -140 0
-118 -142 0
-119 -142 0
-118 -149 0
-117 -150 0
-122 -126 0
-121 -130 0
-123 -131 0
-123 -133 0
-123 -139 0
-125 -138 0
-123 -145 0
-124 -142 0
-121 -149 0
-124 -150 0
-130 -131 0
-129 -132 0
-126 -140 0
-127 -140 0
-129 -141 0
-126 -142 0
-129 -148 0
-129 -147 0
-132 -136 0
-134 -136 0
-135 -142 0
-133 -144 0
-133 -149 0
-133 -148 0
-138 -142 0
-137 -145 0
-138 -148 0
-136 -147 0
-145 -148 0
-141 -147 0
